JulietBench/Juliet_Based_Patch_Bench/linux/CWE-190-Integer-Overflow-or-Wraparound/CVE_2017_17854_bb7f0f989ca7de1153bd128a40a71709e339fa03/solvercheck_func_arg_Snippet_patch2.smt2
; benchmark generated from python API
(set-info :status unknown)
(declare-fun R () (_ BitVec 32))
(declare-fun rdi () (_ BitVec 64))
(assert
 (let (($x77 (and (distinct (_ bv0 32) R) true)))
 (let (($x72 (= (_ bv4294967295 32) R)))
 (let (($x36 (bvugt rdi (_ bv2147483646 64))))
 (let (($x73 (and $x36 $x72)))
 (let (($x138 (= (_ bv0 32) R)))
 (let (($x15 (bvule rdi (_ bv2147483646 64))))
 (let ((?x39 ((_ extract 31 0) rdi)))
 (let ((?x40 ((_ zero_extend 32) ?x39)))
 (let ((?x44 (bvlshr ?x40 (_ bv31 64))))
 (let ((?x45 ((_ extract 0 0) ?x44)))
 (let ((?x46 (bvand ?x45 (_ bv1 1))))
 (let (($x173 (= (_ bv0 1) ?x46)))
 (let (($x198 (and (distinct (_ bv0 32) ?x39) true)))
 (let ((?x185 ((_ sign_extend 32) ?x39)))
 (let (($x201 (bvule ?x185 (_ bv2147483647 64))))
 (let (($x71 (and $x201 $x198 $x173 $x15 $x138)))
 (let (($x184 (= (_ bv0 32) ?x39)))
 (let (($x80 (and $x201 $x184 $x173 $x15 $x138)))
 (let (($x74 (or $x80 $x71 $x73)))
 (let (($x76 (not $x74)))
 (let (($x79 (and $x76 $x77)))
 (let (($x75 (and $x74 $x138)))
 (let (($x81 (or $x75 $x79)))
 (not $x81)))))))))))))))))))))))))
(check-sat)
